ssat_solver_solve2
#level: 2
Abc_NtkNodeNum(s->pNtk): 1170  , BDD limit: 10240
level 1: 10 element
Exist
existence_eliminate_scope
Abc_NtkIsBddLogic(pNtk): 0
Abc_NtkIsStrash(pNtk): 1
existence_eliminate_scope_aig
exist by BDD failed
Abc_NtkNodeNum(s->pNtk): 12375  , BDD limit: 14850
Build BDD success
level 0: 10 element
Random
c ssat solving in ABC
#var: 20
s SATISFIABLE
  > Upper bound = 1.000000e+00
  > Lower bound = 1.000000e+00
FINISHED CPU 0.12 MEM 61688 MAXMEM 61688 STALE 0 MAXMEM_RSS 0
<time name="ALL">160</time>
real 0.24
user 0.20
sys 0.11
